p wcnf 425 1340
w -2 0.367879 0
w 2 2.718282 0
w -3 0.367879 0
w 3 2.718282 0
w -4 0.367879 0
w 4 2.718282 0
w -5 0.367879 0
w 5 2.718282 0
w -6 0.367879 0
w 6 2.718282 0
w -7 0.367879 0
w 7 2.718282 0
w -9 0.367879 0
w 9 2.718282 0
w -10 0.367879 0
w 10 2.718282 0
w -11 0.367879 0
w 11 2.718282 0
w -12 0.367879 0
w 12 2.718282 0
w -13 0.367879 0
w 13 2.718282 0
w -14 0.367879 0
w 14 2.718282 0
w -15 0.367879 0
w 15 2.718282 0
w -16 0.367879 0
w 16 2.718282 0
w -18 0.367879 0
w 18 2.718282 0
w -19 0.367879 0
w 19 2.718282 0
w -20 0.367879 0
w 20 2.718282 0
w -21 0.367879 0
w 21 2.718282 0
w -22 0.367879 0
w 22 2.718282 0
w -23 0.367879 0
w 23 2.718282 0
w -24 0.367879 0
w 24 2.718282 0
w -25 0.367879 0
w 25 2.718282 0
w -26 0.367879 0
w 26 2.718282 0
w -28 0.367879 0
w 28 2.718282 0
w -29 0.367879 0
w 29 2.718282 0
w -30 0.367879 0
w 30 2.718282 0
w -31 0.367879 0
w 31 2.718282 0
w -32 0.367879 0
w 32 2.718282 0
w -33 0.367879 0
w 33 2.718282 0
w -34 0.367879 0
w 34 2.718282 0
w -35 0.367879 0
w 35 2.718282 0
w -36 0.367879 0
w 36 2.718282 0
w -37 0.367879 0
w 37 2.718282 0
w -38 0.367879 0
w 38 2.718282 0
w -39 0.367879 0
w 39 2.718282 0
w -40 0.367879 0
w 40 2.718282 0
w -42 0.367879 0
w 42 2.718282 0
w -43 0.367879 0
w 43 2.718282 0
w -44 0.367879 0
w 44 2.718282 0
w -45 0.367879 0
w 45 2.718282 0
w -46 0.367879 0
w 46 2.718282 0
w -47 0.367879 0
w 47 2.718282 0
w -48 0.367879 0
w 48 2.718282 0
w -49 0.367879 0
w 49 2.718282 0
w -50 0.367879 0
w 50 2.718282 0
w -52 0.367879 0
w 52 2.718282 0
w -53 0.367879 0
w 53 2.718282 0
w -54 0.367879 0
w 54 2.718282 0
w -55 0.367879 0
w 55 2.718282 0
w -56 0.367879 0
w 56 2.718282 0
w -57 0.367879 0
w 57 2.718282 0
w -59 0.367879 0
w 59 2.718282 0
w -60 0.367879 0
w 60 2.718282 0
w -61 0.367879 0
w 61 2.718282 0
w -62 0.367879 0
w 62 2.718282 0
w -63 0.367879 0
w 63 2.718282 0
w -64 0.367879 0
w 64 2.718282 0
w -65 0.367879 0
w 65 2.718282 0
w -66 0.367879 0
w 66 2.718282 0
w -67 0.367879 0
w 67 2.718282 0
w -69 0.367879 0
w 69 2.718282 0
w -70 0.367879 0
w 70 2.718282 0
w -71 0.367879 0
w 71 2.718282 0
w -72 0.367879 0
w 72 2.718282 0
w -73 0.367879 0
w 73 2.718282 0
w -74 0.367879 0
w 74 2.718282 0
w -76 0.367879 0
w 76 2.718282 0
w -77 0.367879 0
w 77 2.718282 0
w -78 0.367879 0
w 78 2.718282 0
w -79 0.367879 0
w 79 2.718282 0
w -80 0.367879 0
w 80 2.718282 0
w -81 0.367879 0
w 81 2.718282 0
w -82 0.367879 0
w 82 2.718282 0
w -83 0.367879 0
w 83 2.718282 0
w -84 0.367879 0
w 84 2.718282 0
w -85 0.367879 0
w 85 2.718282 0
w -86 0.367879 0
w 86 2.718282 0
w -88 0.367879 0
w 88 2.718282 0
w -89 0.367879 0
w 89 2.718282 0
w -90 0.367879 0
w 90 2.718282 0
w -91 0.367879 0
w 91 2.718282 0
w -92 0.367879 0
w 92 2.718282 0
w -94 0.367879 0
w 94 2.718282 0
w -95 0.367879 0
w 95 2.718282 0
w -96 0.367879 0
w 96 2.718282 0
w -97 0.367879 0
w 97 2.718282 0
w -98 0.367879 0
w 98 2.718282 0
w -99 0.367879 0
w 99 2.718282 0
w -100 0.367879 0
w 100 2.718282 0
w -101 0.367879 0
w 101 2.718282 0
w -103 0.367879 0
w 103 2.718282 0
w -104 0.367879 0
w 104 2.718282 0
w -105 0.367879 0
w 105 2.718282 0
w -106 0.367879 0
w 106 2.718282 0
w -107 0.367879 0
w 107 2.718282 0
w -108 0.367879 0
w 108 2.718282 0
w -109 0.367879 0
w 109 2.718282 0
w -110 0.367879 0
w 110 2.718282 0
w -111 0.367879 0
w 111 2.718282 0
w -112 0.367879 0
w 112 2.718282 0
w -114 0.367879 0
w 114 2.718282 0
w -115 0.367879 0
w 115 2.718282 0
w -116 0.367879 0
w 116 2.718282 0
w -117 0.367879 0
w 117 2.718282 0
w -118 0.367879 0
w 118 2.718282 0
w -119 0.367879 0
w 119 2.718282 0
w -121 0.367879 0
w 121 2.718282 0
w -122 0.367879 0
w 122 2.718282 0
w -123 0.367879 0
w 123 2.718282 0
w -124 0.367879 0
w 124 2.718282 0
w -126 0.367879 0
w 126 2.718282 0
w -127 0.367879 0
w 127 2.718282 0
w -128 0.367879 0
w 128 2.718282 0
w -129 0.367879 0
w 129 2.718282 0
w -130 0.367879 0
w 130 2.718282 0
w -131 0.367879 0
w 131 2.718282 0
w -132 0.367879 0
w 132 2.718282 0
w -133 0.367879 0
w 133 2.718282 0
w -135 0.367879 0
w 135 2.718282 0
w -136 0.367879 0
w 136 2.718282 0
w -137 0.367879 0
w 137 2.718282 0
w -138 0.367879 0
w 138 2.718282 0
w -139 0.367879 0
w 139 2.718282 0
w -141 0.367879 0
w 141 2.718282 0
w -142 0.367879 0
w 142 2.718282 0
w -143 0.367879 0
w 143 2.718282 0
w -144 0.367879 0
w 144 2.718282 0
w -145 0.367879 0
w 145 2.718282 0
w -146 0.367879 0
w 146 2.718282 0
w -147 0.367879 0
w 147 2.718282 0
w -148 0.367879 0
w 148 2.718282 0
w -149 0.367879 0
w 149 2.718282 0
w -150 0.367879 0
w 150 2.718282 0
w -152 0.367879 0
w 152 2.718282 0
w -153 0.367879 0
w 153 2.718282 0
w -154 0.367879 0
w 154 2.718282 0
w -155 0.367879 0
w 155 2.718282 0
w -156 0.367879 0
w 156 2.718282 0
w -157 0.367879 0
w 157 2.718282 0
w -158 0.367879 0
w 158 2.718282 0
w -159 0.367879 0
w 159 2.718282 0
w -160 0.367879 0
w 160 2.718282 0
w -161 0.367879 0
w 161 2.718282 0
w -162 0.367879 0
w 162 2.718282 0
w -164 0.367879 0
w 164 2.718282 0
w -165 0.367879 0
w 165 2.718282 0
w -166 0.367879 0
w 166 2.718282 0
w -168 0.367879 0
w 168 2.718282 0
w -169 0.367879 0
w 169 2.718282 0
w -170 0.367879 0
w 170 2.718282 0
w -171 0.367879 0
w 171 2.718282 0
w -173 0.367879 0
w 173 2.718282 0
w -174 0.367879 0
w 174 2.718282 0
w -175 0.367879 0
w 175 2.718282 0
w -176 0.367879 0
w 176 2.718282 0
w -177 0.367879 0
w 177 2.718282 0
w -178 0.367879 0
w 178 2.718282 0
w -179 0.367879 0
w 179 2.718282 0
w -180 0.367879 0
w 180 2.718282 0
w -181 0.367879 0
w 181 2.718282 0
w -183 0.367879 0
w 183 2.718282 0
w -184 0.367879 0
w 184 2.718282 0
w -185 0.367879 0
w 185 2.718282 0
w -186 0.367879 0
w 186 2.718282 0
w -188 0.367879 0
w 188 2.718282 0
w -189 0.367879 0
w 189 2.718282 0
w -190 0.367879 0
w 190 2.718282 0
w -191 0.367879 0
w 191 2.718282 0
w -192 0.367879 0
w 192 2.718282 0
w -193 0.367879 0
w 193 2.718282 0
w -194 0.367879 0
w 194 2.718282 0
w -196 0.367879 0
w 196 2.718282 0
w -197 0.367879 0
w 197 2.718282 0
w -199 0.367879 0
w 199 2.718282 0
w -200 0.367879 0
w 200 2.718282 0
w -201 0.367879 0
w 201 2.718282 0
w -202 0.367879 0
w 202 2.718282 0
w -204 0.367879 0
w 204 2.718282 0
w -205 0.367879 0
w 205 2.718282 0
w -206 0.367879 0
w 206 2.718282 0
w -207 0.367879 0
w 207 2.718282 0
w -209 0.367879 0
w 209 2.718282 0
w -210 0.367879 0
w 210 2.718282 0
w -211 0.367879 0
w 211 2.718282 0
w -212 0.367879 0
w 212 2.718282 0
w -213 0.367879 0
w 213 2.718282 0
w -214 0.367879 0
w 214 2.718282 0
w -215 0.367879 0
w 215 2.718282 0
w -216 0.367879 0
w 216 2.718282 0
w -218 0.367879 0
w 218 2.718282 0
w -220 0.367879 0
w 220 2.718282 0
w -221 0.367879 0
w 221 2.718282 0
w -222 0.367879 0
w 222 2.718282 0
w -223 0.367879 0
w 223 2.718282 0
w -224 0.367879 0
w 224 2.718282 0
w -226 0.367879 0
w 226 2.718282 0
w -227 0.367879 0
w 227 2.718282 0
w -228 0.367879 0
w 228 2.718282 0
w -230 0.367879 0
w 230 2.718282 0
w -231 0.367879 0
w 231 2.718282 0
w -232 0.367879 0
w 232 2.718282 0
w -233 0.367879 0
w 233 2.718282 0
w -234 0.367879 0
w 234 2.718282 0
w -236 0.367879 0
w 236 2.718282 0
w -237 0.367879 0
w 237 2.718282 0
w -238 0.367879 0
w 238 2.718282 0
w -239 0.367879 0
w 239 2.718282 0
w -240 0.367879 0
w 240 2.718282 0
w -241 0.367879 0
w 241 2.718282 0
w -242 0.367879 0
w 242 2.718282 0
w -243 0.367879 0
w 243 2.718282 0
w -245 0.367879 0
w 245 2.718282 0
w -246 0.367879 0
w 246 2.718282 0
w -247 0.367879 0
w 247 2.718282 0
w -248 0.367879 0
w 248 2.718282 0
w -249 0.367879 0
w 249 2.718282 0
w -250 0.367879 0
w 250 2.718282 0
w -252 0.367879 0
w 252 2.718282 0
w -253 0.367879 0
w 253 2.718282 0
w -254 0.367879 0
w 254 2.718282 0
w -255 0.367879 0
w 255 2.718282 0
w -257 0.367879 0
w 257 2.718282 0
w -258 0.367879 0
w 258 2.718282 0
w -259 0.367879 0
w 259 2.718282 0
w -261 0.367879 0
w 261 2.718282 0
w -262 0.367879 0
w 262 2.718282 0
w -263 0.367879 0
w 263 2.718282 0
w -265 0.367879 0
w 265 2.718282 0
w -266 0.367879 0
w 266 2.718282 0
w -267 0.367879 0
w 267 2.718282 0
w -269 0.367879 0
w 269 2.718282 0
w -270 0.367879 0
w 270 2.718282 0
w -271 0.367879 0
w 271 2.718282 0
w -272 0.367879 0
w 272 2.718282 0
w -273 0.367879 0
w 273 2.718282 0
w -274 0.367879 0
w 274 2.718282 0
w -275 0.367879 0
w 275 2.718282 0
w -276 0.367879 0
w 276 2.718282 0
w -278 0.367879 0
w 278 2.718282 0
w -279 0.367879 0
w 279 2.718282 0
w -280 0.367879 0
w 280 2.718282 0
w -281 0.367879 0
w 281 2.718282 0
w -282 0.367879 0
w 282 2.718282 0
w -284 0.367879 0
w 284 2.718282 0
w -285 0.367879 0
w 285 2.718282 0
w -286 0.367879 0
w 286 2.718282 0
w -287 0.367879 0
w 287 2.718282 0
w -288 0.367879 0
w 288 2.718282 0
w -290 0.367879 0
w 290 2.718282 0
w -291 0.367879 0
w 291 2.718282 0
w -292 0.367879 0
w 292 2.718282 0
w -295 0.367879 0
w 295 2.718282 0
w -296 0.367879 0
w 296 2.718282 0
w -297 0.367879 0
w 297 2.718282 0
w -298 0.367879 0
w 298 2.718282 0
w -299 0.367879 0
w 299 2.718282 0
w -300 0.367879 0
w 300 2.718282 0
w -302 0.367879 0
w 302 2.718282 0
w -303 0.367879 0
w 303 2.718282 0
w -304 0.367879 0
w 304 2.718282 0
w -305 0.367879 0
w 305 2.718282 0
w -307 0.367879 0
w 307 2.718282 0
w -308 0.367879 0
w 308 2.718282 0
w -309 0.367879 0
w 309 2.718282 0
w -310 0.367879 0
w 310 2.718282 0
w -312 0.367879 0
w 312 2.718282 0
w -313 0.367879 0
w 313 2.718282 0
w -314 0.367879 0
w 314 2.718282 0
w -315 0.367879 0
w 315 2.718282 0
w -317 0.367879 0
w 317 2.718282 0
w -318 0.367879 0
w 318 2.718282 0
w -319 0.367879 0
w 319 2.718282 0
w -320 0.367879 0
w 320 2.718282 0
w -322 0.367879 0
w 322 2.718282 0
w -323 0.367879 0
w 323 2.718282 0
w -324 0.367879 0
w 324 2.718282 0
w -325 0.367879 0
w 325 2.718282 0
w -326 0.367879 0
w 326 2.718282 0
w -327 0.367879 0
w 327 2.718282 0
w -329 0.367879 0
w 329 2.718282 0
w -330 0.367879 0
w 330 2.718282 0
w -331 0.367879 0
w 331 2.718282 0
w -333 0.367879 0
w 333 2.718282 0
w -334 0.367879 0
w 334 2.718282 0
w -335 0.367879 0
w 335 2.718282 0
w -337 0.367879 0
w 337 2.718282 0
w -339 0.367879 0
w 339 2.718282 0
w -340 0.367879 0
w 340 2.718282 0
w -342 0.367879 0
w 342 2.718282 0
w -343 0.367879 0
w 343 2.718282 0
w -344 0.367879 0
w 344 2.718282 0
w -345 0.367879 0
w 345 2.718282 0
w -346 0.367879 0
w 346 2.718282 0
w -347 0.367879 0
w 347 2.718282 0
w -348 0.367879 0
w 348 2.718282 0
w -350 0.367879 0
w 350 2.718282 0
w -351 0.367879 0
w 351 2.718282 0
w -352 0.367879 0
w 352 2.718282 0
w -355 0.367879 0
w 355 2.718282 0
w -356 0.367879 0
w 356 2.718282 0
w -358 0.367879 0
w 358 2.718282 0
w -359 0.367879 0
w 359 2.718282 0
w -361 0.367879 0
w 361 2.718282 0
w -362 0.367879 0
w 362 2.718282 0
w -365 0.367879 0
w 365 2.718282 0
w -366 0.367879 0
w 366 2.718282 0
w -368 0.367879 0
w 368 2.718282 0
w -370 0.367879 0
w 370 2.718282 0
w -372 0.367879 0
w 372 2.718282 0
w -373 0.367879 0
w 373 2.718282 0
w -375 0.367879 0
w 375 2.718282 0
w -377 0.367879 0
w 377 2.718282 0
w -378 0.367879 0
w 378 2.718282 0
w -379 0.367879 0
w 379 2.718282 0
w -381 0.367879 0
w 381 2.718282 0
w -382 0.367879 0
w 382 2.718282 0
w -384 0.367879 0
w 384 2.718282 0
w -387 0.367879 0
w 387 2.718282 0
w -388 0.367879 0
w 388 2.718282 0
w -390 0.367879 0
w 390 2.718282 0
w -392 0.367879 0
w 392 2.718282 0
w -394 0.367879 0
w 394 2.718282 0
w -395 0.367879 0
w 395 2.718282 0
w -396 0.367879 0
w 396 2.718282 0
w -397 0.367879 0
w 397 2.718282 0
w -399 0.367879 0
w 399 2.718282 0
w -400 0.367879 0
w 400 2.718282 0
w -401 0.367879 0
w 401 2.718282 0
w -402 0.367879 0
w 402 2.718282 0
w -404 0.367879 0
w 404 2.718282 0
w -407 0.367879 0
w 407 2.718282 0
w -409 0.367879 0
w 409 2.718282 0
w -413 0.367879 0
w 413 2.718282 0
w -415 0.367879 0
w 415 2.718282 0
w -416 0.367879 0
w 416 2.718282 0
2 1 93 0
2 -1 -93 0
-2 1 -93 0
-2 -1 93 0
3 1 167 0
3 -1 -167 0
-3 1 -167 0
-3 -1 167 0
4 1 172 0
4 -1 -172 0
-4 1 -172 0
-4 -1 172 0
5 1 244 0
5 -1 -244 0
-5 1 -244 0
-5 -1 244 0
6 1 374 0
6 -1 -374 0
-6 1 -374 0
-6 -1 374 0
7 1 421 0
7 -1 -421 0
-7 1 -421 0
-7 -1 421 0
9 8 277 0
9 -8 -277 0
-9 8 -277 0
-9 -8 277 0
10 8 283 0
10 -8 -283 0
-10 8 -283 0
-10 -8 283 0
11 8 301 0
11 -8 -301 0
-11 8 -301 0
-11 -8 301 0
12 8 311 0
12 -8 -311 0
-12 8 -311 0
-12 -8 311 0
13 8 341 0
13 -8 -341 0
-13 8 -341 0
-13 -8 341 0
14 8 354 0
14 -8 -354 0
-14 8 -354 0
-14 -8 354 0
15 8 363 0
15 -8 -363 0
-15 8 -363 0
-15 -8 363 0
16 8 405 0
16 -8 -405 0
-16 8 -405 0
-16 -8 405 0
18 17 93 0
18 -17 -93 0
-18 17 -93 0
-18 -17 93 0
19 17 195 0
19 -17 -195 0
-19 17 -195 0
-19 -17 195 0
20 17 198 0
20 -17 -198 0
-20 17 -198 0
-20 -17 198 0
21 17 219 0
21 -17 -219 0
-21 17 -219 0
-21 -17 219 0
22 17 316 0
22 -17 -316 0
-22 17 -316 0
-22 -17 316 0
23 17 349 0
23 -17 -349 0
-23 17 -349 0
-23 -17 349 0
24 17 363 0
24 -17 -363 0
-24 17 -363 0
-24 -17 363 0
25 17 398 0
25 -17 -398 0
-25 17 -398 0
-25 -17 398 0
26 17 422 0
26 -17 -422 0
-26 17 -422 0
-26 -17 422 0
28 27 75 0
28 -27 -75 0
-28 27 -75 0
-28 -27 75 0
29 27 87 0
29 -27 -87 0
-29 27 -87 0
-29 -27 87 0
30 27 167 0
30 -27 -167 0
-30 27 -167 0
-30 -27 167 0
31 27 244 0
31 -27 -244 0
-31 27 -244 0
-31 -27 244 0
32 27 251 0
32 -27 -251 0
-32 27 -251 0
-32 -27 251 0
33 27 306 0
33 -27 -306 0
-33 27 -306 0
-33 -27 306 0
34 27 374 0
34 -27 -374 0
-34 27 -374 0
-34 -27 374 0
35 27 385 0
35 -27 -385 0
-35 27 -385 0
-35 -27 385 0
36 27 408 0
36 -27 -408 0
-36 27 -408 0
-36 -27 408 0
37 27 412 0
37 -27 -412 0
-37 27 -412 0
-37 -27 412 0
38 27 418 0
38 -27 -418 0
-38 27 -418 0
-38 -27 418 0
39 27 420 0
39 -27 -420 0
-39 27 -420 0
-39 -27 420 0
40 27 423 0
40 -27 -423 0
-40 27 -423 0
-40 -27 423 0
42 41 51 0
42 -41 -51 0
-42 41 -51 0
-42 -41 51 0
43 41 172 0
43 -41 -172 0
-43 41 -172 0
-43 -41 172 0
44 41 187 0
44 -41 -187 0
-44 41 -187 0
-44 -41 187 0
45 41 244 0
45 -41 -244 0
-45 41 -244 0
-45 -41 244 0
46 41 251 0
46 -41 -251 0
-46 41 -251 0
-46 -41 251 0
47 41 364 0
47 -41 -364 0
-47 41 -364 0
-47 -41 364 0
48 41 376 0
48 -41 -376 0
-48 41 -376 0
-48 -41 376 0
49 41 423 0
49 -41 -423 0
-49 41 -423 0
-49 -41 423 0
50 41 424 0
50 -41 -424 0
-50 41 -424 0
-50 -41 424 0
52 51 217 0
52 -51 -217 0
-52 51 -217 0
-52 -51 217 0
53 51 289 0
53 -51 -289 0
-53 51 -289 0
-53 -51 289 0
54 51 321 0
54 -51 -321 0
-54 51 -321 0
-54 -51 321 0
55 51 328 0
55 -51 -328 0
-55 51 -328 0
-55 -51 328 0
56 51 363 0
56 -51 -363 0
-56 51 -363 0
-56 -51 363 0
57 51 419 0
57 -51 -419 0
-57 51 -419 0
-57 -51 419 0
59 58 140 0
59 -58 -140 0
-59 58 -140 0
-59 -58 140 0
60 58 217 0
60 -58 -217 0
-60 58 -217 0
-60 -58 217 0
61 58 256 0
61 -58 -256 0
-61 58 -256 0
-61 -58 256 0
62 58 294 0
62 -58 -294 0
-62 58 -294 0
-62 -58 294 0
63 58 336 0
63 -58 -336 0
-63 58 -336 0
-63 -58 336 0
64 58 369 0
64 -58 -369 0
-64 58 -369 0
-64 -58 369 0
65 58 376 0
65 -58 -376 0
-65 58 -376 0
-65 -58 376 0
66 58 405 0
66 -58 -405 0
-66 58 -405 0
-66 -58 405 0
67 58 408 0
67 -58 -408 0
-67 58 -408 0
-67 -58 408 0
69 68 195 0
69 -68 -195 0
-69 68 -195 0
-69 -68 195 0
70 68 225 0
70 -68 -225 0
-70 68 -225 0
-70 -68 225 0
71 68 336 0
71 -68 -336 0
-71 68 -336 0
-71 -68 336 0
72 68 408 0
72 -68 -408 0
-72 68 -408 0
-72 -68 408 0
73 68 423 0
73 -68 -423 0
-73 68 -423 0
-73 -68 423 0
74 68 424 0
74 -68 -424 0
-74 68 -424 0
-74 -68 424 0
76 75 102 0
76 -75 -102 0
-76 75 -102 0
-76 -75 102 0
77 75 113 0
77 -75 -113 0
-77 75 -113 0
-77 -75 113 0
78 75 195 0
78 -75 -195 0
-78 75 -195 0
-78 -75 195 0
79 75 208 0
79 -75 -208 0
-79 75 -208 0
-79 -75 208 0
80 75 264 0
80 -75 -264 0
-80 75 -264 0
-80 -75 264 0
81 75 316 0
81 -75 -316 0
-81 75 -316 0
-81 -75 316 0
82 75 336 0
82 -75 -336 0
-82 75 -336 0
-82 -75 336 0
83 75 353 0
83 -75 -353 0
-83 75 -353 0
-83 -75 353 0
84 75 374 0
84 -75 -374 0
-84 75 -374 0
-84 -75 374 0
85 75 393 0
85 -75 -393 0
-85 75 -393 0
-85 -75 393 0
86 75 406 0
86 -75 -406 0
-86 75 -406 0
-86 -75 406 0
88 87 235 0
88 -87 -235 0
-88 87 -235 0
-88 -87 235 0
89 87 277 0
89 -87 -277 0
-89 87 -277 0
-89 -87 277 0
90 87 389 0
90 -87 -389 0
-90 87 -389 0
-90 -87 389 0
91 87 408 0
91 -87 -408 0
-91 87 -408 0
-91 -87 408 0
92 87 411 0
92 -87 -411 0
-92 87 -411 0
-92 -87 411 0
94 93 195 0
94 -93 -195 0
-94 93 -195 0
-94 -93 195 0
95 93 283 0
95 -93 -283 0
-95 93 -283 0
-95 -93 283 0
96 93 353 0
96 -93 -353 0
-96 93 -353 0
-96 -93 353 0
97 93 374 0
97 -93 -374 0
-97 93 -374 0
-97 -93 374 0
98 93 389 0
98 -93 -389 0
-98 93 -389 0
-98 -93 389 0
99 93 410 0
99 -93 -410 0
-99 93 -410 0
-99 -93 410 0
100 93 417 0
100 -93 -417 0
-100 93 -417 0
-100 -93 417 0
101 93 419 0
101 -93 -419 0
-101 93 -419 0
-101 -93 419 0
103 102 187 0
103 -102 -187 0
-103 102 -187 0
-103 -102 187 0
104 102 219 0
104 -102 -219 0
-104 102 -219 0
-104 -102 219 0
105 102 293 0
105 -102 -293 0
-105 102 -293 0
-105 -102 293 0
106 102 336 0
106 -102 -336 0
-106 102 -336 0
-106 -102 336 0
107 102 353 0
107 -102 -353 0
-107 102 -353 0
-107 -102 353 0
108 102 364 0
108 -102 -364 0
-108 102 -364 0
-108 -102 364 0
109 102 408 0
109 -102 -408 0
-109 102 -408 0
-109 -102 408 0
110 102 417 0
110 -102 -417 0
-110 102 -417 0
-110 -102 417 0
111 102 418 0
111 -102 -418 0
-111 102 -418 0
-111 -102 418 0
112 102 425 0
112 -102 -425 0
-112 102 -425 0
-112 -102 425 0
114 113 195 0
114 -113 -195 0
-114 113 -195 0
-114 -113 195 0
115 113 316 0
115 -113 -316 0
-115 113 -316 0
-115 -113 316 0
116 113 321 0
116 -113 -321 0
-116 113 -321 0
-116 -113 321 0
117 113 353 0
117 -113 -353 0
-117 113 -353 0
-117 -113 353 0
118 113 369 0
118 -113 -369 0
-118 113 -369 0
-118 -113 369 0
119 113 391 0
119 -113 -391 0
-119 113 -391 0
-119 -113 391 0
121 120 217 0
121 -120 -217 0
-121 120 -217 0
-121 -120 217 0
122 120 264 0
122 -120 -264 0
-122 120 -264 0
-122 -120 264 0
123 120 393 0
123 -120 -393 0
-123 120 -393 0
-123 -120 393 0
124 120 403 0
124 -120 -403 0
-124 120 -403 0
-124 -120 403 0
126 125 163 0
126 -125 -163 0
-126 125 -163 0
-126 -125 163 0
127 125 172 0
127 -125 -172 0
-127 125 -172 0
-127 -125 172 0
128 125 217 0
128 -125 -217 0
-128 125 -217 0
-128 -125 217 0
129 125 244 0
129 -125 -244 0
-129 125 -244 0
-129 -125 244 0
130 125 283 0
130 -125 -283 0
-130 125 -283 0
-130 -125 283 0
131 125 341 0
131 -125 -341 0
-131 125 -341 0
-131 -125 341 0
132 125 393 0
132 -125 -393 0
-132 125 -393 0
-132 -125 393 0
133 125 425 0
133 -125 -425 0
-133 125 -425 0
-133 -125 425 0
135 134 244 0
135 -134 -244 0
-135 134 -244 0
-135 -134 244 0
136 134 321 0
136 -134 -321 0
-136 134 -321 0
-136 -134 321 0
137 134 328 0
137 -134 -328 0
-137 134 -328 0
-137 -134 328 0
138 134 353 0
138 -134 -353 0
-138 134 -353 0
-138 -134 353 0
139 134 411 0
139 -134 -411 0
-139 134 -411 0
-139 -134 411 0
141 140 151 0
141 -140 -151 0
-141 140 -151 0
-141 -140 151 0
142 140 187 0
142 -140 -187 0
-142 140 -187 0
-142 -140 187 0
143 140 268 0
143 -140 -268 0
-143 140 -268 0
-143 -140 268 0
144 140 321 0
144 -140 -321 0
-144 140 -321 0
-144 -140 321 0
145 140 338 0
145 -140 -338 0
-145 140 -338 0
-145 -140 338 0
146 140 367 0
146 -140 -367 0
-146 140 -367 0
-146 -140 367 0
147 140 376 0
147 -140 -376 0
-147 140 -376 0
-147 -140 376 0
148 140 391 0
148 -140 -391 0
-148 140 -391 0
-148 -140 391 0
149 140 393 0
149 -140 -393 0
-149 140 -393 0
-149 -140 393 0
150 140 406 0
150 -140 -406 0
-150 140 -406 0
-150 -140 406 0
152 151 283 0
152 -151 -283 0
-152 151 -283 0
-152 -151 283 0
153 151 294 0
153 -151 -294 0
-153 151 -294 0
-153 -151 294 0
154 151 321 0
154 -151 -321 0
-154 151 -321 0
-154 -151 321 0
155 151 341 0
155 -151 -341 0
-155 151 -341 0
-155 -151 341 0
156 151 349 0
156 -151 -349 0
-156 151 -349 0
-156 -151 349 0
157 151 353 0
157 -151 -353 0
-157 151 -353 0
-157 -151 353 0
158 151 354 0
158 -151 -354 0
-158 151 -354 0
-158 -151 354 0
159 151 363 0
159 -151 -363 0
-159 151 -363 0
-159 -151 363 0
160 151 391 0
160 -151 -391 0
-160 151 -391 0
-160 -151 391 0
161 151 403 0
161 -151 -403 0
-161 151 -403 0
-161 -151 403 0
162 151 419 0
162 -151 -419 0
-162 151 -419 0
-162 -151 419 0
164 163 264 0
164 -163 -264 0
-164 163 -264 0
-164 -163 264 0
165 163 311 0
165 -163 -311 0
-165 163 -311 0
-165 -163 311 0
166 163 414 0
166 -163 -414 0
-166 163 -414 0
-166 -163 414 0
168 167 235 0
168 -167 -235 0
-168 167 -235 0
-168 -167 235 0
169 167 321 0
169 -167 -321 0
-169 167 -321 0
-169 -167 321 0
170 167 380 0
170 -167 -380 0
-170 167 -380 0
-170 -167 380 0
171 167 423 0
171 -167 -423 0
-171 167 -423 0
-171 -167 423 0
173 172 225 0
173 -172 -225 0
-173 172 -225 0
-173 -172 225 0
174 172 301 0
174 -172 -301 0
-174 172 -301 0
-174 -172 301 0
175 172 311 0
175 -172 -311 0
-175 172 -311 0
-175 -172 311 0
176 172 316 0
176 -172 -316 0
-176 172 -316 0
-176 -172 316 0
177 172 336 0
177 -172 -336 0
-177 172 -336 0
-177 -172 336 0
178 172 410 0
178 -172 -410 0
-178 172 -410 0
-178 -172 410 0
179 172 411 0
179 -172 -411 0
-179 172 -411 0
-179 -172 411 0
180 172 419 0
180 -172 -419 0
-180 172 -419 0
-180 -172 419 0
181 172 425 0
181 -172 -425 0
-181 172 -425 0
-181 -172 425 0
183 182 208 0
183 -182 -208 0
-183 182 -208 0
-183 -182 208 0
184 182 268 0
184 -182 -268 0
-184 182 -268 0
-184 -182 268 0
185 182 406 0
185 -182 -406 0
-185 182 -406 0
-185 -182 406 0
186 182 421 0
186 -182 -421 0
-186 182 -421 0
-186 -182 421 0
188 187 235 0
188 -187 -235 0
-188 187 -235 0
-188 -187 235 0
189 187 244 0
189 -187 -244 0
-189 187 -244 0
-189 -187 244 0
190 187 260 0
190 -187 -260 0
-190 187 -260 0
-190 -187 260 0
191 187 354 0
191 -187 -354 0
-191 187 -354 0
-191 -187 354 0
192 187 367 0
192 -187 -367 0
-192 187 -367 0
-192 -187 367 0
193 187 411 0
193 -187 -411 0
-193 187 -411 0
-193 -187 411 0
194 187 422 0
194 -187 -422 0
-194 187 -422 0
-194 -187 422 0
196 195 311 0
196 -195 -311 0
-196 195 -311 0
-196 -195 311 0
197 195 393 0
197 -195 -393 0
-197 195 -393 0
-197 -195 393 0
199 198 251 0
199 -198 -251 0
-199 198 -251 0
-199 -198 251 0
200 198 283 0
200 -198 -283 0
-200 198 -283 0
-200 -198 283 0
201 198 328 0
201 -198 -328 0
-201 198 -328 0
-201 -198 328 0
202 198 421 0
202 -198 -421 0
-202 198 -421 0
-202 -198 421 0
204 203 371 0
204 -203 -371 0
-204 203 -371 0
-204 -203 371 0
205 203 393 0
205 -203 -393 0
-205 203 -393 0
-205 -203 393 0
206 203 405 0
206 -203 -405 0
-206 203 -405 0
-206 -203 405 0
207 203 408 0
207 -203 -408 0
-207 203 -408 0
-207 -203 408 0
209 208 217 0
209 -208 -217 0
-209 208 -217 0
-209 -208 217 0
210 208 244 0
210 -208 -244 0
-210 208 -244 0
-210 -208 244 0
211 208 264 0
211 -208 -264 0
-211 208 -264 0
-211 -208 264 0
212 208 289 0
212 -208 -289 0
-212 208 -289 0
-212 -208 289 0
213 208 353 0
213 -208 -353 0
-213 208 -353 0
-213 -208 353 0
214 208 386 0
214 -208 -386 0
-214 208 -386 0
-214 -208 386 0
215 208 403 0
215 -208 -403 0
-215 208 -403 0
-215 -208 403 0
216 208 421 0
216 -208 -421 0
-216 208 -421 0
-216 -208 421 0
218 217 425 0
218 -217 -425 0
-218 217 -425 0
-218 -217 425 0
220 219 235 0
220 -219 -235 0
-220 219 -235 0
-220 -219 235 0
221 219 357 0
221 -219 -357 0
-221 219 -357 0
-221 -219 357 0
222 219 393 0
222 -219 -393 0
-222 219 -393 0
-222 -219 393 0
223 219 420 0
223 -219 -420 0
-223 219 -420 0
-223 -219 420 0
224 219 421 0
224 -219 -421 0
-224 219 -421 0
-224 -219 421 0
226 225 289 0
226 -225 -289 0
-226 225 -289 0
-226 -225 289 0
227 225 293 0
227 -225 -293 0
-227 225 -293 0
-227 -225 293 0
228 225 398 0
228 -225 -398 0
-228 225 -398 0
-228 -225 398 0
230 229 260 0
230 -229 -260 0
-230 229 -260 0
-230 -229 260 0
231 229 405 0
231 -229 -405 0
-231 229 -405 0
-231 -229 405 0
232 229 411 0
232 -229 -411 0
-232 229 -411 0
-232 -229 411 0
233 229 414 0
233 -229 -414 0
-233 229 -414 0
-233 -229 414 0
234 229 417 0
234 -229 -417 0
-234 229 -417 0
-234 -229 417 0
236 235 244 0
236 -235 -244 0
-236 235 -244 0
-236 -235 244 0
237 235 264 0
237 -235 -264 0
-237 235 -264 0
-237 -235 264 0
238 235 311 0
238 -235 -311 0
-238 235 -311 0
-238 -235 311 0
239 235 321 0
239 -235 -321 0
-239 235 -321 0
-239 -235 321 0
240 235 336 0
240 -235 -336 0
-240 235 -336 0
-240 -235 336 0
241 235 391 0
241 -235 -391 0
-241 235 -391 0
-241 -235 391 0
242 235 398 0
242 -235 -398 0
-242 235 -398 0
-242 -235 398 0
243 235 425 0
243 -235 -425 0
-243 235 -425 0
-243 -235 425 0
245 244 260 0
245 -244 -260 0
-245 244 -260 0
-245 -244 260 0
246 244 360 0
246 -244 -360 0
-246 244 -360 0
-246 -244 360 0
247 244 363 0
247 -244 -363 0
-247 244 -363 0
-247 -244 363 0
248 244 374 0
248 -244 -374 0
-248 244 -374 0
-248 -244 374 0
249 244 389 0
249 -244 -389 0
-249 244 -389 0
-249 -244 389 0
250 244 423 0
250 -244 -423 0
-250 244 -423 0
-250 -244 423 0
252 251 369 0
252 -251 -369 0
-252 251 -369 0
-252 -251 369 0
253 251 374 0
253 -251 -374 0
-253 251 -374 0
-253 -251 374 0
254 251 385 0
254 -251 -385 0
-254 251 -385 0
-254 -251 385 0
255 251 414 0
255 -251 -414 0
-255 251 -414 0
-255 -251 414 0
257 256 277 0
257 -256 -277 0
-257 256 -277 0
-257 -256 277 0
258 256 341 0
258 -256 -341 0
-258 256 -341 0
-258 -256 341 0
259 256 374 0
259 -256 -374 0
-259 256 -374 0
-259 -256 374 0
261 260 376 0
261 -260 -376 0
-261 260 -376 0
-261 -260 376 0
262 260 406 0
262 -260 -406 0
-262 260 -406 0
-262 -260 406 0
263 260 423 0
263 -260 -423 0
-263 260 -423 0
-263 -260 423 0
265 264 301 0
265 -264 -301 0
-265 264 -301 0
-265 -264 301 0
266 264 386 0
266 -264 -386 0
-266 264 -386 0
-266 -264 386 0
267 264 391 0
267 -264 -391 0
-267 264 -391 0
-267 -264 391 0
269 268 306 0
269 -268 -306 0
-269 268 -306 0
-269 -268 306 0
270 268 353 0
270 -268 -353 0
-270 268 -353 0
-270 -268 353 0
271 268 354 0
271 -268 -354 0
-271 268 -354 0
-271 -268 354 0
272 268 360 0
272 -268 -360 0
-272 268 -360 0
-272 -268 360 0
273 268 376 0
273 -268 -376 0
-273 268 -376 0
-273 -268 376 0
274 268 389 0
274 -268 -389 0
-274 268 -389 0
-274 -268 389 0
275 268 403 0
275 -268 -403 0
-275 268 -403 0
-275 -268 403 0
276 268 410 0
276 -268 -410 0
-276 268 -410 0
-276 -268 410 0
278 277 341 0
278 -277 -341 0
-278 277 -341 0
-278 -277 341 0
279 277 367 0
279 -277 -367 0
-279 277 -367 0
-279 -277 367 0
280 277 391 0
280 -277 -391 0
-280 277 -391 0
-280 -277 391 0
281 277 408 0
281 -277 -408 0
-281 277 -408 0
-281 -277 408 0
282 277 424 0
282 -277 -424 0
-282 277 -424 0
-282 -277 424 0
284 283 341 0
284 -283 -341 0
-284 283 -341 0
-284 -283 341 0
285 283 363 0
285 -283 -363 0
-285 283 -363 0
-285 -283 363 0
286 283 367 0
286 -283 -367 0
-286 283 -367 0
-286 -283 367 0
287 283 386 0
287 -283 -386 0
-287 283 -386 0
-287 -283 386 0
288 283 425 0
288 -283 -425 0
-288 283 -425 0
-288 -283 425 0
290 289 336 0
290 -289 -336 0
-290 289 -336 0
-290 -289 336 0
291 289 405 0
291 -289 -405 0
-291 289 -405 0
-291 -289 405 0
292 289 412 0
292 -289 -412 0
-292 289 -412 0
-292 -289 412 0
295 294 316 0
295 -294 -316 0
-295 294 -316 0
-295 -294 316 0
296 294 328 0
296 -294 -328 0
-296 294 -328 0
-296 -294 328 0
297 294 336 0
297 -294 -336 0
-297 294 -336 0
-297 -294 336 0
298 294 353 0
298 -294 -353 0
-298 294 -353 0
-298 -294 353 0
299 294 410 0
299 -294 -410 0
-299 294 -410 0
-299 -294 410 0
300 294 423 0
300 -294 -423 0
-300 294 -423 0
-300 -294 423 0
302 301 306 0
302 -301 -306 0
-302 301 -306 0
-302 -301 306 0
303 301 341 0
303 -301 -341 0
-303 301 -341 0
-303 -301 341 0
304 301 383 0
304 -301 -383 0
-304 301 -383 0
-304 -301 383 0
305 301 420 0
305 -301 -420 0
-305 301 -420 0
-305 -301 420 0
307 306 367 0
307 -306 -367 0
-307 306 -367 0
-307 -306 367 0
308 306 369 0
308 -306 -369 0
-308 306 -369 0
-308 -306 369 0
309 306 405 0
309 -306 -405 0
-309 306 -405 0
-309 -306 405 0
310 306 418 0
310 -306 -418 0
-310 306 -418 0
-310 -306 418 0
312 311 353 0
312 -311 -353 0
-312 311 -353 0
-312 -311 353 0
313 311 363 0
313 -311 -363 0
-313 311 -363 0
-313 -311 363 0
314 311 391 0
314 -311 -391 0
-314 311 -391 0
-314 -311 391 0
315 311 406 0
315 -311 -406 0
-315 311 -406 0
-315 -311 406 0
317 316 360 0
317 -316 -360 0
-317 316 -360 0
-317 -316 360 0
318 316 364 0
318 -316 -364 0
-318 316 -364 0
-318 -316 364 0
319 316 405 0
319 -316 -405 0
-319 316 -405 0
-319 -316 405 0
320 316 417 0
320 -316 -417 0
-320 316 -417 0
-320 -316 417 0
322 321 328 0
322 -321 -328 0
-322 321 -328 0
-322 -321 328 0
323 321 360 0
323 -321 -360 0
-323 321 -360 0
-323 -321 360 0
324 321 363 0
324 -321 -363 0
-324 321 -363 0
-324 -321 363 0
325 321 386 0
325 -321 -386 0
-325 321 -386 0
-325 -321 386 0
326 321 391 0
326 -321 -391 0
-326 321 -391 0
-326 -321 391 0
327 321 393 0
327 -321 -393 0
-327 321 -393 0
-327 -321 393 0
329 328 376 0
329 -328 -376 0
-329 328 -376 0
-329 -328 376 0
330 328 386 0
330 -328 -386 0
-330 328 -386 0
-330 -328 386 0
331 328 418 0
331 -328 -418 0
-331 328 -418 0
-331 -328 418 0
333 332 354 0
333 -332 -354 0
-333 332 -354 0
-333 -332 354 0
334 332 369 0
334 -332 -369 0
-334 332 -369 0
-334 -332 369 0
335 332 391 0
335 -332 -391 0
-335 332 -391 0
-335 -332 391 0
337 336 411 0
337 -336 -411 0
-337 336 -411 0
-337 -336 411 0
339 338 341 0
339 -338 -341 0
-339 338 -341 0
-339 -338 341 0
340 338 410 0
340 -338 -410 0
-340 338 -410 0
-340 -338 410 0
342 341 349 0
342 -341 -349 0
-342 341 -349 0
-342 -341 349 0
343 341 363 0
343 -341 -363 0
-343 341 -363 0
-343 -341 363 0
344 341 369 0
344 -341 -369 0
-344 341 -369 0
-344 -341 369 0
345 341 374 0
345 -341 -374 0
-345 341 -374 0
-345 -341 374 0
346 341 410 0
346 -341 -410 0
-346 341 -410 0
-346 -341 410 0
347 341 411 0
347 -341 -411 0
-347 341 -411 0
-347 -341 411 0
348 341 414 0
348 -341 -414 0
-348 341 -414 0
-348 -341 414 0
350 349 391 0
350 -349 -391 0
-350 349 -391 0
-350 -349 391 0
351 349 393 0
351 -349 -393 0
-351 349 -393 0
-351 -349 393 0
352 349 403 0
352 -349 -403 0
-352 349 -403 0
-352 -349 403 0
355 354 412 0
355 -354 -412 0
-355 354 -412 0
-355 -354 412 0
356 354 417 0
356 -354 -417 0
-356 354 -417 0
-356 -354 417 0
358 357 367 0
358 -357 -367 0
-358 357 -367 0
-358 -357 367 0
359 357 385 0
359 -357 -385 0
-359 357 -385 0
-359 -357 385 0
361 360 386 0
361 -360 -386 0
-361 360 -386 0
-361 -360 386 0
362 360 393 0
362 -360 -393 0
-362 360 -393 0
-362 -360 393 0
365 364 389 0
365 -364 -389 0
-365 364 -389 0
-365 -364 389 0
366 364 418 0
366 -364 -418 0
-366 364 -418 0
-366 -364 418 0
368 367 380 0
368 -367 -380 0
-368 367 -380 0
-368 -367 380 0
370 369 371 0
370 -369 -371 0
-370 369 -371 0
-370 -369 371 0
372 371 376 0
372 -371 -376 0
-372 371 -376 0
-372 -371 376 0
373 371 425 0
373 -371 -425 0
-373 371 -425 0
-373 -371 425 0
375 374 418 0
375 -374 -418 0
-375 374 -418 0
-375 -374 418 0
377 376 389 0
377 -376 -389 0
-377 376 -389 0
-377 -376 389 0
378 376 391 0
378 -376 -391 0
-378 376 -391 0
-378 -376 391 0
379 376 408 0
379 -376 -408 0
-379 376 -408 0
-379 -376 408 0
381 380 386 0
381 -380 -386 0
-381 380 -386 0
-381 -380 386 0
382 380 420 0
382 -380 -420 0
-382 380 -420 0
-382 -380 420 0
384 383 403 0
384 -383 -403 0
-384 383 -403 0
-384 -383 403 0
387 386 411 0
387 -386 -411 0
-387 386 -411 0
-387 -386 411 0
388 386 425 0
388 -386 -425 0
-388 386 -425 0
-388 -386 425 0
390 389 393 0
390 -389 -393 0
-390 389 -393 0
-390 -389 393 0
392 391 412 0
392 -391 -412 0
-392 391 -412 0
-392 -391 412 0
394 393 408 0
394 -393 -408 0
-394 393 -408 0
-394 -393 408 0
395 393 412 0
395 -393 -412 0
-395 393 -412 0
-395 -393 412 0
396 393 419 0
396 -393 -419 0
-396 393 -419 0
-396 -393 419 0
397 393 424 0
397 -393 -424 0
-397 393 -424 0
-397 -393 424 0
399 398 403 0
399 -398 -403 0
-399 398 -403 0
-399 -398 403 0
400 398 405 0
400 -398 -405 0
-400 398 -405 0
-400 -398 405 0
401 398 411 0
401 -398 -411 0
-401 398 -411 0
-401 -398 411 0
402 398 418 0
402 -398 -418 0
-402 398 -418 0
-402 -398 418 0
404 403 406 0
404 -403 -406 0
-404 403 -406 0
-404 -403 406 0
407 406 410 0
407 -406 -410 0
-407 406 -410 0
-407 -406 410 0
409 408 424 0
409 -408 -424 0
-409 408 -424 0
-409 -408 424 0
413 412 414 0
413 -412 -414 0
-413 412 -414 0
-413 -412 414 0
415 414 419 0
415 -414 -419 0
-415 414 -419 0
-415 -414 419 0
416 414 422 0
416 -414 -422 0
-416 414 -422 0
-416 -414 422 0
